\ This file has been generated by DOcplex
\ ENCODING=ISO-8859-1
\Problem name: AMC Multiple Bin Problem

Maximize
 obj: 21 x_item_0_to_bin_0 + 21 x_item_0_to_bin_1 + 49 x_item_1_to_bin_0
      + 49 x_item_1_to_bin_1 + 29 x_item_2_to_bin_0 + 29 x_item_2_to_bin_1
      + 31 x_item_3_to_bin_0 + 31 x_item_3_to_bin_1 + 33 x_item_4_to_bin_0
      + 33 x_item_4_to_bin_1
Subject To
 c1: x_item_0_to_bin_0 + x_item_0_to_bin_1 <= 1
 c2: x_item_1_to_bin_0 + x_item_1_to_bin_1 <= 1
 c3: x_item_2_to_bin_0 + x_item_2_to_bin_1 <= 1
 c4: x_item_3_to_bin_0 + x_item_3_to_bin_1 <= 1
 c5: x_item_4_to_bin_0 + x_item_4_to_bin_1 <= 1
 c6: 24 x_item_0_to_bin_0 + 45 x_item_1_to_bin_0 + 40 x_item_2_to_bin_0
     + 47 x_item_3_to_bin_0 + 31 x_item_4_to_bin_0 <= 155
 c7: 24 x_item_0_to_bin_1 + 45 x_item_1_to_bin_1 + 40 x_item_2_to_bin_1
     + 47 x_item_3_to_bin_1 + 31 x_item_4_to_bin_1 <= 155

Bounds
 0 <= x_item_0_to_bin_0 <= 1
 0 <= x_item_0_to_bin_1 <= 1
 0 <= x_item_1_to_bin_0 <= 1
 0 <= x_item_1_to_bin_1 <= 1
 0 <= x_item_2_to_bin_0 <= 1
 0 <= x_item_2_to_bin_1 <= 1
 0 <= x_item_3_to_bin_0 <= 1
 0 <= x_item_3_to_bin_1 <= 1
 0 <= x_item_4_to_bin_0 <= 1
 0 <= x_item_4_to_bin_1 <= 1

Binaries
 x_item_0_to_bin_0 x_item_0_to_bin_1 x_item_1_to_bin_0 x_item_1_to_bin_1
 x_item_2_to_bin_0 x_item_2_to_bin_1 x_item_3_to_bin_0 x_item_3_to_bin_1
 x_item_4_to_bin_0 x_item_4_to_bin_1
End
